min: 83 x1_1 + 81 x1_2 + 98 x1_3 + 21 x1_4 + 67 x1_5 + 21 x1_6 + 29 x2_1 + 21 x2_2 + 11 x2_3 + 67 x2_4 + 37 x2_5 + 44 x2_6 + 51 x3_1 + 65 x3_2 + 89 x3_3 + 23 x3_4 + 35 x3_5 + 76 x3_6 + 73 x4_1 + 49 x4_2 + 47 x4_3 + 40 x4_4 + 79 x4_5 + 35 x4_6 + 43 x5_1 + 34 x5_2 + 43 x5_3 + 60 x5_4 + 7 x5_5 + 93 x5_6 + 24 x6_1 + 7 x6_2 + 18 x6_3 + 84 x6_4 + 76 x6_5 + 18 x6_6;

st
x1_1 + x1_2 + x1_3 + x1_4 + x1_5 + x1_6 = 1118;
x2_1 + x2_2 + x2_3 + x2_4 + x2_5 + x2_6 = 33;
x3_1 + x3_2 + x3_3 + x3_4 + x3_5 + x3_6 = 4364;
x4_1 + x4_2 + x4_3 + x4_4 + x4_5 + x4_6 = 1174;
x5_1 + x5_2 + x5_3 + x5_4 + x5_5 + x5_6 = 2419;
x6_1 + x6_2 + x6_3 + x6_4 + x6_5 + x6_6 = 1895;

x1_1 + x2_1 + x3_1 + x4_1 + x5_1 + x6_1 = 1550;
x1_2 + x2_2 + x3_2 + x4_2 + x5_2 + x6_2 = 1876;
x1_3 + x2_3 + x3_3 + x4_3 + x5_3 + x6_3 = 4921;
x1_4 + x2_4 + x3_4 + x4_4 + x5_4 + x6_4 = 224;
x1_5 + x2_5 + x3_5 + x4_5 + x5_5 + x6_5 = 2037;
x1_6 + x2_6 + x3_6 + x4_6 + x5_6 + x6_6 = 1849;

x1_1 >= 0;
x1_2 >= 0;
x1_3 >= 0;
x1_4 >= 0;
x1_5 >= 0;
x1_6 >= 0;
x2_1 >= 0;
x2_2 >= 0;
x2_3 >= 0;
x2_4 >= 0;
x2_5 >= 0;
x2_6 >= 0;
x3_1 >= 0;
x3_2 >= 0;
x3_3 >= 0;
x3_4 >= 0;
x3_5 >= 0;
x3_6 >= 0;
x4_1 >= 0;
x4_2 >= 0;
x4_3 >= 0;
x4_4 >= 0;
x4_5 >= 0;
x4_6 >= 0;
x5_1 >= 0;
x5_2 >= 0;
x5_3 >= 0;
x5_4 >= 0;
x5_5 >= 0;
x5_6 >= 0;
x6_1 >= 0;
x6_2 >= 0;
x6_3 >= 0;
x6_4 >= 0;
x6_5 >= 0;
x6_6 >= 0;